NAME : mar50_1000_4
COMMENT : Data set with 50 points
COMMENT : CIn-UFPE
COMMENT : Contributed by Marcelo Lacerda
TYPE : TSP
DIMENSION : 50
EDGE_WEIGHT_TYPE : EUC_2D
NODE_COORD_SECTION
1 416 458
2 22 923
3 71 537
4 608 713
5 195 448
6 122 240
7 155 635
8 724 821
9 656 975
10 565 334
11 201 406
12 540 355
13 514 990
14 64 406
15 210 470
16 858 366
17 637 35
18 861 955
19 481 332
20 468 529
21 828 266
22 249 889
23 485 30
24 792 919
25 238 391
26 163 737
27 666 762
28 935 96
29 848 865
30 234 862
31 835 514
32 417 704
33 611 433
34 202 656
35 902 838
36 677 332
37 610 373
38 901 857
39 542 985
40 939 454
41 281 327
42 291 964
43 903 808
44 561 1
45 887 965
46 477 858
47 821 801
48 338 671
49 127 950
50 717 196
EOF
